NAME : amz0283.1595398_77398.tour
COMMENT : Cost = 1595398_77398
COMMENT : Found by LKH-AMZ [Keld Helsgaun] Sun May 11 14:28:40 2025
COMMENT : TW viol.: 0 #: 0
TYPE : TOUR
DIMENSION : 120
TOUR_SECTION
29
4
44
118
47
56
64
74
105
46
36
51
80
63
25
83
40
115
41
92
89
117
32
109
76
30
13
10
97
106
66
85
19
79
102
1
34
42
82
18
3
61
16
96
67
98
103
12
53
58
37
107
65
114
91
111
49
55
112
59
119
52
77
81
15
99
69
84
24
35
101
71
120
70
57
86
90
14
88
31
26
62
50
68
54
21
8
72
93
87
110
95
43
38
33
60
2
48
75
45
78
94
73
6
108
28
116
9
104
11
23
39
113
5
100
20
7
27
22
17
-1
EOF
